(set-logic QF_LRA)
(declare-fun fluent_robot_at_r0_p0@0 () Bool)
(declare-fun fluent_robot_at_r1_p0@0 () Bool)
(declare-fun fluent_robot_at_r0_p1@0 () Bool)
(declare-fun fluent_robot_at_r1_p1@0 () Bool)
(declare-fun fluent_robot_at_r0_p2@0 () Bool)
(declare-fun parameter_load_at_depot_pallet@1 () Real)
(declare-fun fluent_robot_free_r0@0 () Bool)
(declare-fun fluent_robot_free_r1@0 () Bool)
(declare-fun fluent_robot_at_r1_p2@0 () Bool)
(declare-fun fluent_pallet_at_plt0_p0@0 () Bool)
(declare-fun fluent_pallet_at_plt0_p1@0 () Bool)
(declare-fun fluent_pallet_at_plt0_p2@0 () Bool)
(declare-fun fluent_battery_level_r0@0 () Real)
(declare-fun fluent_battery_level_r1@0 () Real)
(declare-fun act_unload_at_depot@1 () Bool)
(declare-fun parameter_unload_at_depot_pos@1 () Real)
(declare-fun parameter_unload_at_depot_r@1 () Real)
(declare-fun fluent_position_free_p0@0 () Bool)
(declare-fun fluent_position_free_p1@0 () Bool)
(declare-fun fluent_position_free_p2@0 () Bool)
(declare-fun fluent_robot_has_r0_plt0@0 () Bool)
(declare-fun fluent_robot_has_r1_plt0@0 () Bool)
(declare-fun parameter_unload_at_depot_pallet@1 () Real)
(declare-fun fluent_ready_plt0_p0_t0@0 () Bool)
(declare-fun fluent_ready_plt0_p1_t0@0 () Bool)
(declare-fun fluent_ready_plt0_p2_t0@0 () Bool)
(declare-fun fluent_ready_plt0_p0_t1@0 () Bool)
(declare-fun fluent_ready_plt0_p1_t1@0 () Bool)
(declare-fun fluent_ready_plt0_p2_t1@0 () Bool)
(declare-fun fluent_treated_plt0_t0@0 () Bool)
(declare-fun fluent_treated_plt0_t1@0 () Bool)
(declare-fun dur_make_treatment@1 () Real)
(declare-fun t@1 () Real)
(declare-fun act_move@1 () Bool)
(declare-fun parameter_move_topos@1 () Real)
(declare-fun parameter_move_frompos@1 () Real)
(declare-fun parameter_make_treatment_t@1 () Real)
(declare-fun parameter_make_treatment_pallet@1 () Real)
(declare-fun parameter_move_r@1 () Real)
(declare-fun parameter_make_treatment_r@1 () Real)
(declare-fun parameter_make_treatment_pos@1 () Real)
(declare-fun fluent_robot_at_r0_p0@1 () Bool)
(declare-fun fluent_robot_at_r1_p0@1 () Bool)
(declare-fun fluent_robot_at_r0_p1@1 () Bool)
(declare-fun fluent_robot_at_r1_p1@1 () Bool)
(declare-fun fluent_robot_at_r0_p2@1 () Bool)
(declare-fun fluent_robot_at_r1_p2@1 () Bool)
(declare-fun fluent_battery_level_r0@1 () Real)
(declare-fun fluent_battery_level_r1@1 () Real)
(declare-fun act_load@1 () Bool)
(declare-fun parameter_load_t@1 () Real)
(declare-fun parameter_load_pos@1 () Real)
(declare-fun act_make_treatment@1 () Bool)
(declare-fun parameter_load_pallet@1 () Real)
(declare-fun parameter_load_r@1 () Real)
(declare-fun fluent_robot_free_r0@1 () Bool)
(declare-fun fluent_robot_free_r1@1 () Bool)
(declare-fun fluent_ready_plt0_p0_t0@1 () Bool)
(declare-fun fluent_ready_plt0_p1_t0@1 () Bool)
(declare-fun fluent_ready_plt0_p2_t0@1 () Bool)
(declare-fun fluent_ready_plt0_p0_t1@1 () Bool)
(declare-fun fluent_ready_plt0_p1_t1@1 () Bool)
(declare-fun fluent_ready_plt0_p2_t1@1 () Bool)
(declare-fun fluent_pallet_at_plt0_p0@1 () Bool)
(declare-fun fluent_pallet_at_plt0_p1@1 () Bool)
(declare-fun fluent_pallet_at_plt0_p2@1 () Bool)
(declare-fun fluent_robot_has_r0_plt0@1 () Bool)
(declare-fun fluent_robot_has_r1_plt0@1 () Bool)
(declare-fun fluent_treated_plt0_t0@1 () Bool)
(declare-fun fluent_treated_plt0_t1@1 () Bool)
(declare-fun fluent_position_free_p0@1 () Bool)
(declare-fun fluent_position_free_p1@1 () Bool)
(declare-fun fluent_position_free_p2@1 () Bool)
(declare-fun act_load_at_depot@1 () Bool)
(declare-fun parameter_load_at_depot_pos@1 () Real)
(declare-fun parameter_load_at_depot_r@1 () Real)
(assert (let ((.def_0 (= parameter_load_at_depot_r@1 1.0))) (let ((.def_1 (= parameter_load_at_depot_r@1 0.0))) (let ((.def_2 (or .def_1 .def_0))) (let ((.def_3 (= parameter_load_at_depot_pos@1 4.0))) (let ((.def_4 (= parameter_load_at_depot_pos@1 3.0))) (let ((.def_5 (= parameter_load_at_depot_pos@1 2.0))) (let ((.def_6 (or .def_5 .def_4 .def_3))) (let ((.def_7 (= parameter_make_treatment_pos@1 4.0))) (let ((.def_8 (= parameter_make_treatment_pos@1 3.0))) (let ((.def_9 (= parameter_make_treatment_pos@1 2.0))) (let ((.def_10 (or .def_9 .def_8 .def_7))) (let ((.def_11 (= parameter_make_treatment_r@1 1.0))) (let ((.def_12 (= parameter_make_treatment_r@1 0.0))) (let ((.def_13 (or .def_12 .def_11))) (let ((.def_14 (= parameter_move_r@1 1.0))) (let ((.def_15 (= parameter_move_r@1 0.0))) (let ((.def_16 (or .def_15 .def_14))) (let ((.def_17 (= parameter_make_treatment_pallet@1 5.0))) (let ((.def_18 (= parameter_move_frompos@1 4.0))) (let ((.def_19 (= parameter_move_frompos@1 3.0))) (let ((.def_20 (= parameter_move_frompos@1 2.0))) (let ((.def_21 (or .def_20 .def_19 .def_18))) (let ((.def_22 (= parameter_make_treatment_t@1 7.0))) (let ((.def_23 (= parameter_make_treatment_t@1 6.0))) (let ((.def_24 (or .def_23 .def_22))) (let ((.def_25 (= parameter_move_topos@1 4.0))) (let ((.def_26 (= parameter_move_topos@1 3.0))) (let ((.def_27 (= parameter_move_topos@1 2.0))) (let ((.def_28 (or .def_27 .def_26 .def_25))) (let ((.def_29 (= parameter_load_r@1 1.0))) (let ((.def_30 (= parameter_load_r@1 0.0))) (let ((.def_31 (or .def_30 .def_29))) (let ((.def_32 (= parameter_unload_at_depot_pallet@1 5.0))) (let ((.def_33 (= parameter_unload_at_depot_r@1 1.0))) (let ((.def_34 (= parameter_unload_at_depot_r@1 0.0))) (let ((.def_35 (or .def_34 .def_33))) (let ((.def_36 (= parameter_load_pallet@1 5.0))) (let ((.def_37 (= parameter_load_pos@1 4.0))) (let ((.def_38 (= parameter_load_pos@1 3.0))) (let ((.def_39 (= parameter_load_pos@1 2.0))) (let ((.def_40 (or .def_39 .def_38 .def_37))) (let ((.def_41 (= parameter_unload_at_depot_pos@1 4.0))) (let ((.def_42 (= parameter_unload_at_depot_pos@1 3.0))) (let ((.def_43 (= parameter_unload_at_depot_pos@1 2.0))) (let ((.def_44 (or .def_43 .def_42 .def_41))) (let ((.def_45 (= parameter_load_t@1 7.0))) (let ((.def_46 (= parameter_load_t@1 6.0))) (let ((.def_47 (or .def_46 .def_45))) (let ((.def_48 (<= fluent_battery_level_r1@1 100.0))) (let ((.def_49 (<= 0.0 fluent_battery_level_r1@1))) (let ((.def_50 (<= fluent_battery_level_r0@1 100.0))) (let ((.def_51 (<= 0.0 fluent_battery_level_r0@1))) (let ((.def_52 (= parameter_load_at_depot_pallet@1 5.0))) (let ((.def_53 (and act_move@1 true .def_14))) (let ((.def_54 (= fluent_battery_level_r1@0 fluent_battery_level_r1@1))) (let ((.def_55 (not .def_54))) (let ((.def_56 (=> .def_55 .def_53))) (let ((.def_57 (and act_move@1 true .def_15))) (let ((.def_58 (= fluent_battery_level_r0@0 fluent_battery_level_r0@1))) (let ((.def_59 (not .def_58))) (let ((.def_60 (=> .def_59 .def_57))) (let ((.def_61 (and act_make_treatment@1 true .def_17 .def_7))) (let ((.def_62 (and act_unload_at_depot@1 true .def_32 .def_41))) (let ((.def_63 (and .def_62 .def_61))) (let ((.def_64 (not .def_63))) (let ((.def_65 (and act_load_at_depot@1 true .def_52 .def_3))) (let ((.def_66 (and .def_65 .def_61))) (let ((.def_67 (not .def_66))) (let ((.def_68 (and .def_65 .def_62))) (let ((.def_69 (not .def_68))) (let ((.def_70 (and act_load@1 true .def_36 .def_37))) (let ((.def_71 (and .def_70 .def_61))) (let ((.def_72 (not .def_71))) (let ((.def_73 (and .def_70 .def_62))) (let ((.def_74 (not .def_73))) (let ((.def_75 (and .def_70 .def_65))) (let ((.def_76 (not .def_75))) (let ((.def_77 (or .def_70 .def_65 .def_62 .def_61))) (let ((.def_78 (= fluent_pallet_at_plt0_p2@0 fluent_pallet_at_plt0_p2@1))) (let ((.def_79 (not .def_78))) (let ((.def_80 (=> .def_79 .def_77))) (let ((.def_81 (and act_make_treatment@1 true .def_17 .def_8))) (let ((.def_82 (and act_unload_at_depot@1 true .def_32 .def_42))) (let ((.def_83 (and .def_82 .def_81))) (let ((.def_84 (not .def_83))) (let ((.def_85 (and act_load_at_depot@1 true .def_52 .def_4))) (let ((.def_86 (and .def_85 .def_81))) (let ((.def_87 (not .def_86))) (let ((.def_88 (and .def_85 .def_82))) (let ((.def_89 (not .def_88))) (let ((.def_90 (and act_load@1 true .def_36 .def_38))) (let ((.def_91 (and .def_90 .def_81))) (let ((.def_92 (not .def_91))) (let ((.def_93 (and .def_90 .def_82))) (let ((.def_94 (not .def_93))) (let ((.def_95 (and .def_90 .def_85))) (let ((.def_96 (not .def_95))) (let ((.def_97 (or .def_90 .def_85 .def_82 .def_81))) (let ((.def_98 (= fluent_pallet_at_plt0_p1@0 fluent_pallet_at_plt0_p1@1))) (let ((.def_99 (not .def_98))) (let ((.def_100 (=> .def_99 .def_97))) (let ((.def_101 (and act_make_treatment@1 true .def_17 .def_9))) (let ((.def_102 (and act_unload_at_depot@1 true .def_32 .def_43))) (let ((.def_103 (and .def_102 .def_101))) (let ((.def_104 (not .def_103))) (let ((.def_105 (and act_load_at_depot@1 true .def_52 .def_5))) (let ((.def_106 (and .def_105 .def_101))) (let ((.def_107 (not .def_106))) (let ((.def_108 (and .def_105 .def_102))) (let ((.def_109 (not .def_108))) (let ((.def_110 (and act_load@1 true .def_36 .def_39))) (let ((.def_111 (and .def_110 .def_101))) (let ((.def_112 (not .def_111))) (let ((.def_113 (and .def_110 .def_102))) (let ((.def_114 (not .def_113))) (let ((.def_115 (and .def_110 .def_105))) (let ((.def_116 (not .def_115))) (let ((.def_117 (or .def_110 .def_105 .def_102 .def_101))) (let ((.def_118 (= fluent_pallet_at_plt0_p0@0 fluent_pallet_at_plt0_p0@1))) (let ((.def_119 (not .def_118))) (let ((.def_120 (=> .def_119 .def_117))) (let ((.def_121 (and act_load@1 true .def_36 .def_45))) (let ((.def_122 (= fluent_treated_plt0_t1@0 fluent_treated_plt0_t1@1))) (let ((.def_123 (not .def_122))) (let ((.def_124 (=> .def_123 .def_121))) (let ((.def_125 (and act_load@1 true .def_36 .def_46))) (let ((.def_126 (= fluent_treated_plt0_t0@0 fluent_treated_plt0_t0@1))) (let ((.def_127 (not .def_126))) (let ((.def_128 (=> .def_127 .def_125))) (let ((.def_129 (and act_make_treatment@1 true .def_7))) (let ((.def_130 (and act_load@1 true .def_37))) (let ((.def_131 (and .def_130 .def_129))) (let ((.def_132 (not .def_131))) (let ((.def_133 (or .def_130 .def_129))) (let ((.def_134 (= fluent_position_free_p2@0 fluent_position_free_p2@1))) (let ((.def_135 (not .def_134))) (let ((.def_136 (=> .def_135 .def_133))) (let ((.def_137 (and act_make_treatment@1 true .def_8))) (let ((.def_138 (and act_load@1 true .def_38))) (let ((.def_139 (and .def_138 .def_137))) (let ((.def_140 (not .def_139))) (let ((.def_141 (or .def_138 .def_137))) (let ((.def_142 (= fluent_position_free_p1@0 fluent_position_free_p1@1))) (let ((.def_143 (not .def_142))) (let ((.def_144 (=> .def_143 .def_141))) (let ((.def_145 (and act_make_treatment@1 true .def_9))) (let ((.def_146 (and act_load@1 true .def_39))) (let ((.def_147 (and .def_146 .def_145))) (let ((.def_148 (not .def_147))) (let ((.def_149 (or .def_146 .def_145))) (let ((.def_150 (= fluent_position_free_p0@0 fluent_position_free_p0@1))) (let ((.def_151 (not .def_150))) (let ((.def_152 (=> .def_151 .def_149))) (let ((.def_153 (+ t@1 2.0))) (let ((.def_154 (= t@1 .def_153))) (let ((.def_155 (and act_make_treatment@1 true .def_154 .def_17 .def_7 .def_22))) (let ((.def_156 (and act_load@1 true .def_36 .def_37 .def_45))) (let ((.def_157 (and .def_156 .def_155))) (let ((.def_158 (not .def_157))) (let ((.def_159 (or .def_156 .def_155))) (let ((.def_160 (= fluent_ready_plt0_p2_t1@0 fluent_ready_plt0_p2_t1@1))) (let ((.def_161 (not .def_160))) (let ((.def_162 (=> .def_161 .def_159))) (let ((.def_163 (and act_make_treatment@1 true .def_154 .def_17 .def_8 .def_22))) (let ((.def_164 (and act_load@1 true .def_36 .def_38 .def_45))) (let ((.def_165 (and .def_164 .def_163))) (let ((.def_166 (not .def_165))) (let ((.def_167 (or .def_164 .def_163))) (let ((.def_168 (= fluent_ready_plt0_p1_t1@0 fluent_ready_plt0_p1_t1@1))) (let ((.def_169 (not .def_168))) (let ((.def_170 (=> .def_169 .def_167))) (let ((.def_171 (and act_make_treatment@1 true .def_154 .def_17 .def_9 .def_22))) (let ((.def_172 (and act_load@1 true .def_36 .def_39 .def_45))) (let ((.def_173 (and .def_172 .def_171))) (let ((.def_174 (not .def_173))) (let ((.def_175 (or .def_172 .def_171))) (let ((.def_176 (= fluent_ready_plt0_p0_t1@0 fluent_ready_plt0_p0_t1@1))) (let ((.def_177 (not .def_176))) (let ((.def_178 (=> .def_177 .def_175))) (let ((.def_179 (and act_make_treatment@1 true .def_154 .def_17 .def_7 .def_23))) (let ((.def_180 (and act_load@1 true .def_36 .def_37 .def_46))) (let ((.def_181 (and .def_180 .def_179))) (let ((.def_182 (not .def_181))) (let ((.def_183 (or .def_180 .def_179))) (let ((.def_184 (= fluent_ready_plt0_p2_t0@0 fluent_ready_plt0_p2_t0@1))) (let ((.def_185 (not .def_184))) (let ((.def_186 (=> .def_185 .def_183))) (let ((.def_187 (and act_make_treatment@1 true .def_154 .def_17 .def_8 .def_23))) (let ((.def_188 (and act_load@1 true .def_36 .def_38 .def_46))) (let ((.def_189 (and .def_188 .def_187))) (let ((.def_190 (not .def_189))) (let ((.def_191 (or .def_188 .def_187))) (let ((.def_192 (= fluent_ready_plt0_p1_t0@0 fluent_ready_plt0_p1_t0@1))) (let ((.def_193 (not .def_192))) (let ((.def_194 (=> .def_193 .def_191))) (let ((.def_195 (and act_make_treatment@1 true .def_154 .def_17 .def_9 .def_23))) (let ((.def_196 (and act_load@1 true .def_36 .def_39 .def_46))) (let ((.def_197 (and .def_196 .def_195))) (let ((.def_198 (not .def_197))) (let ((.def_199 (or .def_196 .def_195))) (let ((.def_200 (= fluent_ready_plt0_p0_t0@0 fluent_ready_plt0_p0_t0@1))) (let ((.def_201 (not .def_200))) (let ((.def_202 (=> .def_201 .def_199))) (let ((.def_203 (and act_make_treatment@1 true .def_11 .def_17))) (let ((.def_204 (and act_unload_at_depot@1 true .def_33 .def_32))) (let ((.def_205 (and .def_204 .def_203))) (let ((.def_206 (not .def_205))) (let ((.def_207 (and act_load_at_depot@1 true .def_0 .def_52))) (let ((.def_208 (and .def_207 .def_203))) (let ((.def_209 (not .def_208))) (let ((.def_210 (and .def_207 .def_204))) (let ((.def_211 (not .def_210))) (let ((.def_212 (and act_load@1 true .def_29 .def_36))) (let ((.def_213 (and .def_212 .def_203))) (let ((.def_214 (not .def_213))) (let ((.def_215 (and .def_212 .def_204))) (let ((.def_216 (not .def_215))) (let ((.def_217 (and .def_212 .def_207))) (let ((.def_218 (not .def_217))) (let ((.def_219 (or .def_212 .def_207 .def_204 .def_203))) (let ((.def_220 (= fluent_robot_has_r1_plt0@0 fluent_robot_has_r1_plt0@1))) (let ((.def_221 (not .def_220))) (let ((.def_222 (=> .def_221 .def_219))) (let ((.def_223 (and act_make_treatment@1 true .def_12 .def_17))) (let ((.def_224 (and act_unload_at_depot@1 true .def_34 .def_32))) (let ((.def_225 (and .def_224 .def_223))) (let ((.def_226 (not .def_225))) (let ((.def_227 (and act_load_at_depot@1 true .def_1 .def_52))) (let ((.def_228 (and .def_227 .def_223))) (let ((.def_229 (not .def_228))) (let ((.def_230 (and .def_227 .def_224))) (let ((.def_231 (not .def_230))) (let ((.def_232 (and act_load@1 true .def_30 .def_36))) (let ((.def_233 (and .def_232 .def_223))) (let ((.def_234 (not .def_233))) (let ((.def_235 (and .def_232 .def_224))) (let ((.def_236 (not .def_235))) (let ((.def_237 (and .def_232 .def_227))) (let ((.def_238 (not .def_237))) (let ((.def_239 (or .def_232 .def_227 .def_224 .def_223))) (let ((.def_240 (= fluent_robot_has_r0_plt0@0 fluent_robot_has_r0_plt0@1))) (let ((.def_241 (not .def_240))) (let ((.def_242 (=> .def_241 .def_239))) (let ((.def_243 (and act_make_treatment@1 true .def_11))) (let ((.def_244 (and act_unload_at_depot@1 true .def_33))) (let ((.def_245 (and .def_244 .def_243))) (let ((.def_246 (not .def_245))) (let ((.def_247 (and act_load_at_depot@1 true .def_0))) (let ((.def_248 (and .def_247 .def_243))) (let ((.def_249 (not .def_248))) (let ((.def_250 (and .def_247 .def_244))) (let ((.def_251 (not .def_250))) (let ((.def_252 (and act_load@1 true .def_29))) (let ((.def_253 (and .def_252 .def_243))) (let ((.def_254 (not .def_253))) (let ((.def_255 (and .def_252 .def_244))) (let ((.def_256 (not .def_255))) (let ((.def_257 (and .def_252 .def_247))) (let ((.def_258 (not .def_257))) (let ((.def_259 (or .def_252 .def_247 .def_244 .def_243))) (let ((.def_260 (= fluent_robot_free_r1@0 fluent_robot_free_r1@1))) (let ((.def_261 (not .def_260))) (let ((.def_262 (=> .def_261 .def_259))) (let ((.def_263 (and act_make_treatment@1 true .def_12))) (let ((.def_264 (and act_unload_at_depot@1 true .def_34))) (let ((.def_265 (and .def_264 .def_263))) (let ((.def_266 (not .def_265))) (let ((.def_267 (and act_load_at_depot@1 true .def_1))) (let ((.def_268 (and .def_267 .def_263))) (let ((.def_269 (not .def_268))) (let ((.def_270 (and .def_267 .def_264))) (let ((.def_271 (not .def_270))) (let ((.def_272 (and act_load@1 true .def_30))) (let ((.def_273 (and .def_272 .def_263))) (let ((.def_274 (not .def_273))) (let ((.def_275 (and .def_272 .def_264))) (let ((.def_276 (not .def_275))) (let ((.def_277 (and .def_272 .def_267))) (let ((.def_278 (not .def_277))) (let ((.def_279 (or .def_272 .def_267 .def_264 .def_263))) (let ((.def_280 (= fluent_robot_free_r0@0 fluent_robot_free_r0@1))) (let ((.def_281 (not .def_280))) (let ((.def_282 (=> .def_281 .def_279))) (let ((.def_283 (and act_move@1 true .def_14 .def_18))) (let ((.def_284 (and act_move@1 true .def_14 .def_25))) (let ((.def_285 (and .def_284 .def_283))) (let ((.def_286 (not .def_285))) (let ((.def_287 (or .def_284 .def_283))) (let ((.def_288 (= fluent_robot_at_r1_p2@0 fluent_robot_at_r1_p2@1))) (let ((.def_289 (not .def_288))) (let ((.def_290 (=> .def_289 .def_287))) (let ((.def_291 (and act_move@1 true .def_15 .def_18))) (let ((.def_292 (and act_move@1 true .def_15 .def_25))) (let ((.def_293 (and .def_292 .def_291))) (let ((.def_294 (not .def_293))) (let ((.def_295 (or .def_292 .def_291))) (let ((.def_296 (= fluent_robot_at_r0_p2@0 fluent_robot_at_r0_p2@1))) (let ((.def_297 (not .def_296))) (let ((.def_298 (=> .def_297 .def_295))) (let ((.def_299 (and act_move@1 true .def_14 .def_19))) (let ((.def_300 (and act_move@1 true .def_14 .def_26))) (let ((.def_301 (and .def_300 .def_299))) (let ((.def_302 (not .def_301))) (let ((.def_303 (or .def_300 .def_299))) (let ((.def_304 (= fluent_robot_at_r1_p1@0 fluent_robot_at_r1_p1@1))) (let ((.def_305 (not .def_304))) (let ((.def_306 (=> .def_305 .def_303))) (let ((.def_307 (and act_move@1 true .def_15 .def_19))) (let ((.def_308 (and act_move@1 true .def_15 .def_26))) (let ((.def_309 (and .def_308 .def_307))) (let ((.def_310 (not .def_309))) (let ((.def_311 (or .def_308 .def_307))) (let ((.def_312 (= fluent_robot_at_r0_p1@0 fluent_robot_at_r0_p1@1))) (let ((.def_313 (not .def_312))) (let ((.def_314 (=> .def_313 .def_311))) (let ((.def_315 (and act_move@1 true .def_14 .def_20))) (let ((.def_316 (and act_move@1 true .def_14 .def_27))) (let ((.def_317 (and .def_316 .def_315))) (let ((.def_318 (not .def_317))) (let ((.def_319 (or .def_316 .def_315))) (let ((.def_320 (= fluent_robot_at_r1_p0@0 fluent_robot_at_r1_p0@1))) (let ((.def_321 (not .def_320))) (let ((.def_322 (=> .def_321 .def_319))) (let ((.def_323 (and act_move@1 true .def_15 .def_20))) (let ((.def_324 (and act_move@1 true .def_15 .def_27))) (let ((.def_325 (and .def_324 .def_323))) (let ((.def_326 (not .def_325))) (let ((.def_327 (or .def_324 .def_323))) (let ((.def_328 (= fluent_robot_at_r0_p0@0 fluent_robot_at_r0_p0@1))) (let ((.def_329 (not .def_328))) (let ((.def_330 (=> .def_329 .def_327))) (let ((.def_331 (and .def_330 .def_326 .def_322 .def_318 .def_314 .def_310 .def_306 .def_302 .def_298 .def_294 .def_290 .def_286 .def_282 .def_278 .def_276 .def_274 .def_271 .def_269 .def_266 .def_262 .def_258 .def_256 .def_254 .def_251 .def_249 .def_246 .def_242 .def_238 .def_236 .def_234 .def_231 .def_229 .def_226 .def_222 .def_218 .def_216 .def_214 .def_211 .def_209 .def_206 .def_202 .def_198 .def_194 .def_190 .def_186 .def_182 .def_178 .def_174 .def_170 .def_166 .def_162 .def_158 .def_152 .def_148 .def_144 .def_140 .def_136 .def_132 .def_128 .def_124 .def_120 .def_116 .def_114 .def_112 .def_109 .def_107 .def_104 .def_100 .def_96 .def_94 .def_92 .def_89 .def_87 .def_84 .def_80 .def_76 .def_74 .def_72 .def_69 .def_67 .def_64 .def_60 .def_56))) (let ((.def_332 (= t@1 t@1))) (let ((.def_333 (and act_unload_at_depot@1 act_load@1 .def_332))) (let ((.def_334 (not .def_333))) (let ((.def_335 (and act_make_treatment@1 act_load@1 .def_332))) (let ((.def_336 (not .def_335))) (let ((.def_337 (and act_make_treatment@1 act_load_at_depot@1 .def_332))) (let ((.def_338 (not .def_337))) (let ((.def_339 (+ t@1 dur_make_treatment@1))) (let ((.def_340 (= .def_339 t@1))) (let ((.def_341 (and act_make_treatment@1 act_load@1 .def_340))) (let ((.def_342 (not .def_341))) (let ((.def_343 (and act_move@1 act_load@1 .def_332))) (let ((.def_344 (not .def_343))) (let ((.def_345 (and act_move@1 act_make_treatment@1 .def_332))) (let ((.def_346 (not .def_345))) (let ((.def_347 (and act_move@1 act_unload_at_depot@1 .def_332))) (let ((.def_348 (not .def_347))) (let ((.def_349 (and act_load@1 act_load_at_depot@1 .def_332))) (let ((.def_350 (not .def_349))) (let ((.def_351 (and act_load@1 act_make_treatment@1 .def_154))) (let ((.def_352 (not .def_351))) (let ((.def_353 (and act_unload_at_depot@1 act_load_at_depot@1 .def_332))) (let ((.def_354 (not .def_353))) (let ((.def_355 (and act_unload_at_depot@1 act_make_treatment@1 .def_332))) (let ((.def_356 (not .def_355))) (let ((.def_357 (and act_move@1 act_load_at_depot@1 .def_332))) (let ((.def_358 (not .def_357))) (let ((.def_359 (and .def_358 .def_356 .def_354 .def_352 .def_350 .def_348 .def_346 .def_344 .def_342 .def_338 .def_336 .def_334))) (let ((.def_360 (<= 0.0 t@1))) (let ((.def_361 (and .def_17 .def_8 .def_23))) (let ((.def_362 (ite .def_361 fluent_ready_plt0_p1_t0@1 fluent_ready_plt0_p0_t0@1))) (let ((.def_363 (and .def_17 .def_7 .def_23))) (let ((.def_364 (ite .def_363 fluent_ready_plt0_p2_t0@1 .def_362))) (let ((.def_365 (and .def_17 .def_9 .def_22))) (let ((.def_366 (ite .def_365 fluent_ready_plt0_p0_t1@1 .def_364))) (let ((.def_367 (and .def_17 .def_8 .def_22))) (let ((.def_368 (ite .def_367 fluent_ready_plt0_p1_t1@1 .def_366))) (let ((.def_369 (and .def_17 .def_7 .def_22))) (let ((.def_370 (ite .def_369 fluent_ready_plt0_p2_t1@1 .def_368))) (let ((.def_371 (= .def_370 true))) (let ((.def_372 (=> true .def_371))) (let ((.def_373 (and .def_154 .def_372))) (let ((.def_374 (ite .def_11 fluent_robot_free_r1@1 fluent_robot_free_r0@1))) (let ((.def_375 (= .def_374 true))) (let ((.def_376 (=> true .def_375))) (let ((.def_377 (and .def_17 .def_8))) (let ((.def_378 (ite .def_377 fluent_pallet_at_plt0_p1@1 fluent_pallet_at_plt0_p0@1))) (let ((.def_379 (and .def_17 .def_7))) (let ((.def_380 (ite .def_379 fluent_pallet_at_plt0_p2@1 .def_378))) (let ((.def_381 (= .def_380 true))) (let ((.def_382 (=> true .def_381))) (let ((.def_383 (and .def_11 .def_17))) (let ((.def_384 (ite .def_383 fluent_robot_has_r1_plt0@1 fluent_robot_has_r0_plt0@1))) (let ((.def_385 (= .def_384 false))) (let ((.def_386 (=> true .def_385))) (let ((.def_387 (ite .def_8 fluent_position_free_p1@1 fluent_position_free_p0@1))) (let ((.def_388 (ite .def_7 fluent_position_free_p2@1 .def_387))) (let ((.def_389 (= .def_388 false))) (let ((.def_390 (=> true .def_389))) (let ((.def_391 (and .def_332 .def_390 .def_386 .def_382 .def_376))) (let ((.def_392 (ite .def_8 fluent_position_free_p1@0 fluent_position_free_p0@0))) (let ((.def_393 (ite .def_7 fluent_position_free_p2@0 .def_392))) (let ((.def_394 (and .def_17 .def_22))) (let ((.def_395 (ite .def_394 fluent_treated_plt0_t1@0 fluent_treated_plt0_t0@0))) (let ((.def_396 (and .def_395 .def_393))) (let ((.def_397 (<= .def_339 t@1))) (let ((.def_398 (< (- 1.0) .def_339))) (let ((.def_399 (and .def_398 .def_397))) (let ((.def_400 (=> .def_399 .def_396))) (let ((.def_401 (not .def_395))) (let ((.def_402 (ite .def_383 fluent_robot_has_r1_plt0@0 fluent_robot_has_r0_plt0@0))) (let ((.def_403 (and .def_11 .def_9))) (let ((.def_404 (ite .def_403 fluent_robot_at_r1_p0@0 fluent_robot_at_r0_p0@0))) (let ((.def_405 (and .def_12 .def_8))) (let ((.def_406 (ite .def_405 fluent_robot_at_r0_p1@0 .def_404))) (let ((.def_407 (and .def_11 .def_8))) (let ((.def_408 (ite .def_407 fluent_robot_at_r1_p1@0 .def_406))) (let ((.def_409 (and .def_12 .def_7))) (let ((.def_410 (ite .def_409 fluent_robot_at_r0_p2@0 .def_408))) (let ((.def_411 (and .def_11 .def_7))) (let ((.def_412 (ite .def_411 fluent_robot_at_r1_p2@0 .def_410))) (let ((.def_413 (and .def_8 .def_23))) (let ((.def_414 (ite .def_413 false true))) (let ((.def_415 (and .def_7 .def_23))) (let ((.def_416 (ite .def_415 false .def_414))) (let ((.def_417 (and .def_9 .def_22))) (let ((.def_418 (ite .def_417 false .def_416))) (let ((.def_419 (and .def_8 .def_22))) (let ((.def_420 (ite .def_419 true .def_418))) (let ((.def_421 (and .def_7 .def_22))) (let ((.def_422 (ite .def_421 false .def_420))) (let ((.def_423 (and .def_422 .def_393 .def_412 .def_402 .def_401))) (let ((.def_424 (<= t@1 t@1))) (let ((.def_425 (< (- 1.0) t@1))) (let ((.def_426 (and .def_425 .def_424))) (let ((.def_427 (=> .def_426 .def_423))) (let ((.def_428 (<= dur_make_treatment@1 4.0))) (let ((.def_429 (<= 4.0 dur_make_treatment@1))) (let ((.def_430 (and .def_429 .def_428))) (let ((.def_431 (and .def_430 .def_397 .def_427 .def_400 .def_391 .def_373))) (let ((.def_432 (=> act_make_treatment@1 .def_431))) (let ((.def_433 (and .def_33 .def_32))) (let ((.def_434 (ite .def_433 fluent_robot_has_r1_plt0@1 fluent_robot_has_r0_plt0@1))) (let ((.def_435 (= .def_434 false))) (let ((.def_436 (=> true .def_435))) (let ((.def_437 (ite .def_33 fluent_robot_free_r1@1 fluent_robot_free_r0@1))) (let ((.def_438 (= .def_437 true))) (let ((.def_439 (=> true .def_438))) (let ((.def_440 (and .def_32 .def_42))) (let ((.def_441 (ite .def_440 fluent_pallet_at_plt0_p1@1 fluent_pallet_at_plt0_p0@1))) (let ((.def_442 (and .def_32 .def_41))) (let ((.def_443 (ite .def_442 fluent_pallet_at_plt0_p2@1 .def_441))) (let ((.def_444 (= .def_443 true))) (let ((.def_445 (=> true .def_444))) (let ((.def_446 (ite .def_433 fluent_robot_has_r1_plt0@0 fluent_robot_has_r0_plt0@0))) (let ((.def_447 (and .def_33 .def_43))) (let ((.def_448 (ite .def_447 fluent_robot_at_r1_p0@0 fluent_robot_at_r0_p0@0))) (let ((.def_449 (and .def_34 .def_42))) (let ((.def_450 (ite .def_449 fluent_robot_at_r0_p1@0 .def_448))) (let ((.def_451 (and .def_33 .def_42))) (let ((.def_452 (ite .def_451 fluent_robot_at_r1_p1@0 .def_450))) (let ((.def_453 (and .def_34 .def_41))) (let ((.def_454 (ite .def_453 fluent_robot_at_r0_p2@0 .def_452))) (let ((.def_455 (and .def_33 .def_41))) (let ((.def_456 (ite .def_455 fluent_robot_at_r1_p2@0 .def_454))) (let ((.def_457 (ite .def_42 false false))) (let ((.def_458 (ite .def_41 true .def_457))) (let ((.def_459 (and .def_458 .def_456 .def_446 .def_445 .def_439 .def_436))) (let ((.def_460 (=> act_unload_at_depot@1 .def_459))) (let ((.def_461 (and .def_52 .def_4))) (let ((.def_462 (ite .def_461 fluent_pallet_at_plt0_p1@1 fluent_pallet_at_plt0_p0@1))) (let ((.def_463 (and .def_52 .def_3))) (let ((.def_464 (ite .def_463 fluent_pallet_at_plt0_p2@1 .def_462))) (let ((.def_465 (= .def_464 false))) (let ((.def_466 (=> true .def_465))) (let ((.def_467 (and .def_0 .def_52))) (let ((.def_468 (ite .def_467 fluent_robot_has_r1_plt0@1 fluent_robot_has_r0_plt0@1))) (let ((.def_469 (= .def_468 true))) (let ((.def_470 (=> true .def_469))) (let ((.def_471 (ite .def_0 fluent_robot_free_r1@1 fluent_robot_free_r0@1))) (let ((.def_472 (= .def_471 false))) (let ((.def_473 (=> true .def_472))) (let ((.def_474 (ite .def_461 fluent_pallet_at_plt0_p1@0 fluent_pallet_at_plt0_p0@0))) (let ((.def_475 (ite .def_463 fluent_pallet_at_plt0_p2@0 .def_474))) (let ((.def_476 (ite .def_0 fluent_robot_free_r1@0 fluent_robot_free_r0@0))) (let ((.def_477 (and .def_0 .def_5))) (let ((.def_478 (ite .def_477 fluent_robot_at_r1_p0@0 fluent_robot_at_r0_p0@0))) (let ((.def_479 (and .def_1 .def_4))) (let ((.def_480 (ite .def_479 fluent_robot_at_r0_p1@0 .def_478))) (let ((.def_481 (and .def_0 .def_4))) (let ((.def_482 (ite .def_481 fluent_robot_at_r1_p1@0 .def_480))) (let ((.def_483 (and .def_1 .def_3))) (let ((.def_484 (ite .def_483 fluent_robot_at_r0_p2@0 .def_482))) (let ((.def_485 (and .def_0 .def_3))) (let ((.def_486 (ite .def_485 fluent_robot_at_r1_p2@0 .def_484))) (let ((.def_487 (ite .def_4 false false))) (let ((.def_488 (ite .def_3 true .def_487))) (let ((.def_489 (and .def_488 .def_486 .def_476 .def_475 .def_473 .def_470 .def_466))) (let ((.def_490 (=> act_load_at_depot@1 .def_489))) (let ((.def_491 (ite .def_38 fluent_position_free_p1@1 fluent_position_free_p0@1))) (let ((.def_492 (ite .def_37 fluent_position_free_p2@1 .def_491))) (let ((.def_493 (= .def_492 true))) (let ((.def_494 (=> true .def_493))) (let ((.def_495 (and .def_36 .def_45))) (let ((.def_496 (ite .def_495 fluent_treated_plt0_t1@1 fluent_treated_plt0_t0@1))) (let ((.def_497 (= .def_496 true))) (let ((.def_498 (=> true .def_497))) (let ((.def_499 (and .def_29 .def_36))) (let ((.def_500 (ite .def_499 fluent_robot_has_r1_plt0@1 fluent_robot_has_r0_plt0@1))) (let ((.def_501 (= .def_500 true))) (let ((.def_502 (=> true .def_501))) (let ((.def_503 (and .def_36 .def_38))) (let ((.def_504 (ite .def_503 fluent_pallet_at_plt0_p1@1 fluent_pallet_at_plt0_p0@1))) (let ((.def_505 (and .def_36 .def_37))) (let ((.def_506 (ite .def_505 fluent_pallet_at_plt0_p2@1 .def_504))) (let ((.def_507 (= .def_506 false))) (let ((.def_508 (=> true .def_507))) (let ((.def_509 (and .def_36 .def_38 .def_46))) (let ((.def_510 (ite .def_509 fluent_ready_plt0_p1_t0@1 fluent_ready_plt0_p0_t0@1))) (let ((.def_511 (and .def_36 .def_37 .def_46))) (let ((.def_512 (ite .def_511 fluent_ready_plt0_p2_t0@1 .def_510))) (let ((.def_513 (and .def_36 .def_39 .def_45))) (let ((.def_514 (ite .def_513 fluent_ready_plt0_p0_t1@1 .def_512))) (let ((.def_515 (and .def_36 .def_38 .def_45))) (let ((.def_516 (ite .def_515 fluent_ready_plt0_p1_t1@1 .def_514))) (let ((.def_517 (and .def_36 .def_37 .def_45))) (let ((.def_518 (ite .def_517 fluent_ready_plt0_p2_t1@1 .def_516))) (let ((.def_519 (= .def_518 false))) (let ((.def_520 (=> true .def_519))) (let ((.def_521 (ite .def_29 fluent_robot_free_r1@1 fluent_robot_free_r0@1))) (let ((.def_522 (= .def_521 false))) (let ((.def_523 (=> true .def_522))) (let ((.def_524 (ite .def_503 fluent_pallet_at_plt0_p1@0 fluent_pallet_at_plt0_p0@0))) (let ((.def_525 (ite .def_505 fluent_pallet_at_plt0_p2@0 .def_524))) (let ((.def_526 (ite .def_29 fluent_robot_free_r1@0 fluent_robot_free_r0@0))) (let ((.def_527 (and .def_29 .def_39))) (let ((.def_528 (ite .def_527 fluent_robot_at_r1_p0@0 fluent_robot_at_r0_p0@0))) (let ((.def_529 (and .def_30 .def_38))) (let ((.def_530 (ite .def_529 fluent_robot_at_r0_p1@0 .def_528))) (let ((.def_531 (and .def_29 .def_38))) (let ((.def_532 (ite .def_531 fluent_robot_at_r1_p1@0 .def_530))) (let ((.def_533 (and .def_30 .def_37))) (let ((.def_534 (ite .def_533 fluent_robot_at_r0_p2@0 .def_532))) (let ((.def_535 (and .def_29 .def_37))) (let ((.def_536 (ite .def_535 fluent_robot_at_r1_p2@0 .def_534))) (let ((.def_537 (ite .def_509 fluent_ready_plt0_p1_t0@0 fluent_ready_plt0_p0_t0@0))) (let ((.def_538 (ite .def_511 fluent_ready_plt0_p2_t0@0 .def_537))) (let ((.def_539 (ite .def_513 fluent_ready_plt0_p0_t1@0 .def_538))) (let ((.def_540 (ite .def_515 fluent_ready_plt0_p1_t1@0 .def_539))) (let ((.def_541 (ite .def_517 fluent_ready_plt0_p2_t1@0 .def_540))) (let ((.def_542 (and .def_541 .def_536 .def_526 .def_525 .def_523 .def_520 .def_508 .def_502 .def_498 .def_494))) (let ((.def_543 (=> act_load@1 .def_542))) (let ((.def_544 (and .def_19 .def_27))) (let ((.def_545 (ite .def_544 1.0 0.0))) (let ((.def_546 (and .def_18 .def_27))) (let ((.def_547 (ite .def_546 2.0 .def_545))) (let ((.def_548 (and .def_20 .def_26))) (let ((.def_549 (ite .def_548 1.0 .def_547))) (let ((.def_550 (and .def_19 .def_26))) (let ((.def_551 (ite .def_550 0.0 .def_549))) (let ((.def_552 (and .def_18 .def_26))) (let ((.def_553 (ite .def_552 1.0 .def_551))) (let ((.def_554 (and .def_20 .def_25))) (let ((.def_555 (ite .def_554 2.0 .def_553))) (let ((.def_556 (and .def_19 .def_25))) (let ((.def_557 (ite .def_556 1.0 .def_555))) (let ((.def_558 (and .def_18 .def_25))) (let ((.def_559 (ite .def_558 0.0 .def_557))) (let ((.def_560 (ite .def_14 fluent_battery_level_r1@0 fluent_battery_level_r0@0))) (let ((.def_561 (- .def_560 .def_559))) (let ((.def_562 (ite .def_14 fluent_battery_level_r1@1 fluent_battery_level_r0@1))) (let ((.def_563 (= .def_562 .def_561))) (let ((.def_564 (=> true .def_563))) (let ((.def_565 (and .def_14 .def_20))) (let ((.def_566 (ite .def_565 fluent_robot_at_r1_p0@1 fluent_robot_at_r0_p0@1))) (let ((.def_567 (and .def_15 .def_19))) (let ((.def_568 (ite .def_567 fluent_robot_at_r0_p1@1 .def_566))) (let ((.def_569 (and .def_14 .def_19))) (let ((.def_570 (ite .def_569 fluent_robot_at_r1_p1@1 .def_568))) (let ((.def_571 (and .def_15 .def_18))) (let ((.def_572 (ite .def_571 fluent_robot_at_r0_p2@1 .def_570))) (let ((.def_573 (and .def_14 .def_18))) (let ((.def_574 (ite .def_573 fluent_robot_at_r1_p2@1 .def_572))) (let ((.def_575 (= .def_574 false))) (let ((.def_576 (=> true .def_575))) (let ((.def_577 (and .def_14 .def_27))) (let ((.def_578 (ite .def_577 fluent_robot_at_r1_p0@1 fluent_robot_at_r0_p0@1))) (let ((.def_579 (and .def_15 .def_26))) (let ((.def_580 (ite .def_579 fluent_robot_at_r0_p1@1 .def_578))) (let ((.def_581 (and .def_14 .def_26))) (let ((.def_582 (ite .def_581 fluent_robot_at_r1_p1@1 .def_580))) (let ((.def_583 (and .def_15 .def_25))) (let ((.def_584 (ite .def_583 fluent_robot_at_r0_p2@1 .def_582))) (let ((.def_585 (and .def_14 .def_25))) (let ((.def_586 (ite .def_585 fluent_robot_at_r1_p2@1 .def_584))) (let ((.def_587 (= .def_586 true))) (let ((.def_588 (=> true .def_587))) (let ((.def_589 (<= .def_559 .def_560))) (let ((.def_590 (ite .def_565 fluent_robot_at_r1_p0@0 fluent_robot_at_r0_p0@0))) (let ((.def_591 (ite .def_567 fluent_robot_at_r0_p1@0 .def_590))) (let ((.def_592 (ite .def_569 fluent_robot_at_r1_p1@0 .def_591))) (let ((.def_593 (ite .def_571 fluent_robot_at_r0_p2@0 .def_592))) (let ((.def_594 (ite .def_573 fluent_robot_at_r1_p2@0 .def_593))) (let ((.def_595 (= parameter_move_frompos@1 parameter_move_topos@1))) (let ((.def_596 (not .def_595))) (let ((.def_597 (and .def_596 .def_594 .def_589 .def_588 .def_576 .def_564))) (let ((.def_598 (=> act_move@1 .def_597))) (let ((.def_599 (<= fluent_battery_level_r1@0 100.0))) (let ((.def_600 (<= 0.0 fluent_battery_level_r1@0))) (let ((.def_601 (<= fluent_battery_level_r0@0 100.0))) (let ((.def_602 (<= 0.0 fluent_battery_level_r0@0))) (let ((.def_603 (= false false))) (let ((.def_604 (= fluent_pallet_at_plt0_p1@0 false))) (let ((.def_605 (= fluent_pallet_at_plt0_p0@0 false))) (let ((.def_606 (= fluent_treated_plt0_t1@0 false))) (let ((.def_607 (= fluent_treated_plt0_t0@0 false))) (let ((.def_608 (= fluent_ready_plt0_p2_t1@0 false))) (let ((.def_609 (= fluent_ready_plt0_p1_t1@0 false))) (let ((.def_610 (= fluent_ready_plt0_p0_t1@0 false))) (let ((.def_611 (= fluent_ready_plt0_p2_t0@0 false))) (let ((.def_612 (= fluent_ready_plt0_p1_t0@0 false))) (let ((.def_613 (= fluent_ready_plt0_p0_t0@0 false))) (let ((.def_614 (= fluent_robot_has_r1_plt0@0 false))) (let ((.def_615 (= fluent_robot_has_r0_plt0@0 false))) (let ((.def_616 (= fluent_robot_at_r1_p1@0 false))) (let ((.def_617 (= fluent_robot_at_r0_p1@0 false))) (let ((.def_618 (= fluent_robot_at_r1_p0@0 false))) (let ((.def_619 (= fluent_robot_at_r0_p0@0 false))) (let ((.def_620 (= true true))) (let ((.def_621 (= fluent_position_free_p2@0 true))) (let ((.def_622 (= fluent_position_free_p1@0 true))) (let ((.def_623 (= fluent_position_free_p0@0 true))) (let ((.def_624 (= 0.0 0.0))) (let ((.def_625 (= 1.0 1.0))) (let ((.def_626 (= 2.0 2.0))) (let ((.def_627 (= fluent_battery_level_r1@0 6.0))) (let ((.def_628 (= fluent_battery_level_r0@0 6.0))) (let ((.def_629 (= fluent_pallet_at_plt0_p2@0 true))) (let ((.def_630 (= fluent_robot_free_r1@0 true))) (let ((.def_631 (= fluent_robot_at_r1_p2@0 true))) (let ((.def_632 (= fluent_robot_free_r0@0 true))) (let ((.def_633 (= fluent_robot_at_r0_p2@0 true))) (let ((.def_634 (and .def_633 .def_632 .def_631 .def_630 .def_629 .def_628 .def_627 .def_624 .def_625 .def_625 .def_626 .def_626 .def_624 .def_625 .def_625 .def_624 .def_620 .def_623 .def_622 .def_621 .def_620 .def_620 .def_619 .def_618 .def_617 .def_616 .def_615 .def_614 .def_613 .def_612 .def_611 .def_610 .def_609 .def_608 .def_607 .def_606 .def_605 .def_604 .def_603 .def_603 .def_603 .def_603 .def_603 .def_603 .def_602 .def_601 .def_600 .def_599))) (let ((.def_635 (and .def_634 .def_598 .def_543 .def_490 .def_460 .def_432 .def_360 .def_359 true .def_331 .def_52 .def_51 .def_50 .def_49 .def_48 .def_47 .def_44 .def_40 .def_36 .def_35 .def_32 .def_31 .def_28 .def_24 .def_21 .def_17 .def_16 .def_13 .def_10 .def_6 .def_2 true))) .def_635)))))))))))))))))))))))))))))))))))))))))))))))))))))))))))))))))))))))))))))))))))))))))))))))))))))))))))))))))))))))))))))))))))))))))))))))))))))))))))))))))))))))))))))))))))))))))))))))))))))))))))))))))))))))))))))))))))))))))))))))))))))))))))))))))))))))))))))))))))))))))))))))))))))))))))))))))))))))))))))))))))))))))))))))))))))))))))))))))))))))))))))))))))))))))))))))))))))))))))))))))))))))))))))))))))))))))))))))))))))))))))))))))))))))))))))))))))))))))))))))))))))))))))))))))))))))))))))))))))))))))))))))))))))))))))))))))))))))))))))))))))))))))))))))))))))))))))))))))))))))))))))))))))))))))))))))))))))))))))))
(check-sat)


